src/RACER/swarm_exploration/utils/lkh_mtsp_solver/resource/amtsp2_2.tour
NAME : amtsp.-102143.tour
COMMENT : Length = -102143
COMMENT : Found by LKH [Keld Helsgaun] Wed May 14 16:48:28 2025
TYPE : TOUR
DIMENSION : 13
TOUR_SECTION
1
2
4
5
8
7
9
6
10
13
12
11
3
-1
EOF
